% Instance for pentominoes model generated using https://github.com/zayenz/minizinc-pentominoes-generator
% Instance generated for board size 15 with 10 tiles using 42 as seed
% Generated board
%    222222222277774
%    552222222277777
%    552222222277777
%    152112222777777
%    111111111777777
%    111611116666777
%    111633666668777
%    111666666688777
%    116666668888777
%    116666b68888777
%    111bbbb88888887
%    1bbbbbb88888888
%    1bbbbbb88888888
%    bbbbbbbb8888888
%    bbbbbbb98888888

size = 15;
tiles = 10;
expressions = [
    "( ([2 3 4 5 6 7 8 9 10 11]* 1{1} [2 3 4 5 6 7 8 9 10 11]{2} 1{2} [2 3 4 5 6 7 8 9 10 11]{10} [2 3 4 5 6 7 8 9 10 11] 1{9} [2 3 4 5 6 7 8 9 10 11]{6} [2 3 4 5 6 7 8 9 10 11] 1{3} [2 3 4 5 6 7 8 9 10 11]{1} 1{4} [2 3 4 5 6 7 8 9 10 11]{7} [2 3 4 5 6 7 8 9 10 11] 1{3} [2 3 4 5 6 7 8 9 10 11]{12} [2 3 4 5 6 7 8 9 10 11] 1{3} [2 3 4 5 6 7 8 9 10 11]{12} [2 3 4 5 6 7 8 9 10 11] 1{2} [2 3 4 5 6 7 8 9 10 11]{13} [2 3 4 5 6 7 8 9 10 11] 1{2} [2 3 4 5 6 7 8 9 10 11]{13} [2 3 4 5 6 7 8 9 10 11] 1{3} [2 3 4 5 6 7 8 9 10 11]{12} [2 3 4 5 6 7 8 9 10 11] 1{1} [2 3 4 5 6 7 8 9 10 11]{14} [2 3 4 5 6 7 8 9 10 11] 1{1} [2 3 4 5 6 7 8 9 10 11]*) | ([2 3 4 5 6 7 8 9 10 11]* 1{10} [2 3 4 5 6 7 8 9 10 11]{3} [2 3 4 5 6 7 8 9 10 11] [2 3 4 5 6 7 8 9 10 11]{4} 1{7} [2 3 4 5 6 7 8 9 10 11]{4} [2 3 4 5 6 7 8 9 10 11] [2 3 4 5 6 7 8 9 10 11]{4} 1{1} [2 3 4 5 6 7 8 9 10 11]{2} 1{4} [2 3 4 5 6 7 8 9 10 11]{4} [2 3 4 5 6 7 8 9 10 11] [2 3 4 5 6 7 8 9 10 11]{10} 1{2} [2 3 4 5 6 7 8 9 10 11]{3} [2 3 4 5 6 7 8 9 10 11] [2 3 4 5 6 7 8 9 10 11]{9} 1{3} [2 3 4 5 6 7 8 9 10 11]{3} [2 3 4 5 6 7 8 9 10 11] [2 3 4 5 6 7 8 9 10 11]{9} 1{2} [2 3 4 5 6 7 8 9 10 11]{4} [2 3 4 5 6 7 8 9 10 11] [2 3 4 5 6 7 8 9 10 11]{9} 1{2} [2 3 4 5 6 7 8 9 10 11]{4} [2 3 4 5 6 7 8 9 10 11] [2 3 4 5 6 7 8 9 10 11]{9} 1{2} [2 3 4 5 6 7 8 9 10 11]{4} [2 3 4 5 6 7 8 9 10 11] [2 3 4 5 6 7 8 9 10 11]{10} 1{1} [2 3 4 5 6 7 8 9 10 11]*) | ([2 3 4 5 6 7 8 9 10 11]* 1{1} [2 3 4 5 6 7 8 9 10 11] [2 3 4 5 6 7 8 9 10 11]{14} 1{1} [2 3 4 5 6 7 8 9 10 11] [2 3 4 5 6 7 8 9 10 11]{12} 1{3} [2 3 4 5 6 7 8 9 10 11] [2 3 4 5 6 7 8 9 10 11]{13} 1{2} [2 3 4 5 6 7 8 9 10 11] [2 3 4 5 6 7 8 9 10 11]{13} 1{2} [2 3 4 5 6 7 8 9 10 11] [2 3 4 5 6 7 8 9 10 11]{12} 1{3} [2 3 4 5 6 7 8 9 10 11] [2 3 4 5 6 7 8 9 10 11]{12} 1{3} [2 3 4 5 6 7 8 9 10 11] [2 3 4 5 6 7 8 9 10 11]{7} 1{4} [2 3 4 5 6 7 8 9 10 11]{1} 1{3} [2 3 4 5 6 7 8 9 10 11] [2 3 4 5 6 7 8 9 10 11]{6} 1{9} [2 3 4 5 6 7 8 9 10 11] [2 3 4 5 6 7 8 9 10 11]{10} 1{2} [2 3 4 5 6 7 8 9 10 11]{2} 1{1} [2 3 4 5 6 7 8 9 10 11]*) | ([2 3 4 5 6 7 8 9 10 11]* 1{1} [2 3 4 5 6 7 8 9 10 11]{10} [2 3 4 5 6 7 8 9 10 11] [2 3 4 5 6 7 8 9 10 11]{4} 1{2} [2 3 4 5 6 7 8 9 10 11]{9} [2 3 4 5 6 7 8 9 10 11] [2 3 4 5 6 7 8 9 10 11]{4} 1{2} [2 3 4 5 6 7 8 9 10 11]{9} [2 3 4 5 6 7 8 9 10 11] [2 3 4 5 6 7 8 9 10 11]{4} 1{2} [2 3 4 5 6 7 8 9 10 11]{9} [2 3 4 5 6 7 8 9 10 11] [2 3 4 5 6 7 8 9 10 11]{3} 1{3} [2 3 4 5 6 7 8 9 10 11]{9} [2 3 4 5 6 7 8 9 10 11] [2 3 4 5 6 7 8 9 10 11]{3} 1{2} [2 3 4 5 6 7 8 9 10 11]{10} [2 3 4 5 6 7 8 9 10 11] [2 3 4 5 6 7 8 9 10 11]{4} 1{4} [2 3 4 5 6 7 8 9 10 11]{2} 1{1} [2 3 4 5 6 7 8 9 10 11]{4} [2 3 4 5 6 7 8 9 10 11] [2 3 4 5 6 7 8 9 10 11]{4} 1{7} [2 3 4 5 6 7 8 9 10 11]{4} [2 3 4 5 6 7 8 9 10 11] [2 3 4 5 6 7 8 9 10 11]{3} 1{10} [2 3 4 5 6 7 8 9 10 11]*) | ([2 3 4 5 6 7 8 9 10 11]* 1{2} [2 3 4 5 6 7 8 9 10 11]{2} 1{1} [2 3 4 5 6 7 8 9 10 11] [2 3 4 5 6 7 8 9 10 11]{6} 1{9} [2 3 4 5 6 7 8 9 10 11] [2 3 4 5 6 7 8 9 10 11]{7} 1{4} [2 3 4 5 6 7 8 9 10 11]{1} 1{3} [2 3 4 5 6 7 8 9 10 11] [2 3 4 5 6 7 8 9 10 11]{12} 1{3} [2 3 4 5 6 7 8 9 10 11] [2 3 4 5 6 7 8 9 10 11]{12} 1{3} [2 3 4 5 6 7 8 9 10 11] [2 3 4 5 6 7 8 9 10 11]{13} 1{2} [2 3 4 5 6 7 8 9 10 11] [2 3 4 5 6 7 8 9 10 11]{13} 1{2} [2 3 4 5 6 7 8 9 10 11] [2 3 4 5 6 7 8 9 10 11]{12} 1{3} [2 3 4 5 6 7 8 9 10 11] [2 3 4 5 6 7 8 9 10 11]{14} 1{1} [2 3 4 5 6 7 8 9 10 11] [2 3 4 5 6 7 8 9 10 11]{14} 1{1} [2 3 4 5 6 7 8 9 10 11]*) | ([2 3 4 5 6 7 8 9 10 11]* 1{10} [2 3 4 5 6 7 8 9 10 11]{2} [2 3 4 5 6 7 8 9 10 11] [2 3 4 5 6 7 8 9 10 11]{4} 1{7} [2 3 4 5 6 7 8 9 10 11]{4} [2 3 4 5 6 7 8 9 10 11] [2 3 4 5 6 7 8 9 10 11]{4} 1{4} [2 3 4 5 6 7 8 9 10 11]{2} 1{1} [2 3 4 5 6 7 8 9 10 11]{4} [2 3 4 5 6 7 8 9 10 11] [2 3 4 5 6 7 8 9 10 11]{3} 1{2} [2 3 4 5 6 7 8 9 10 11]{10} [2 3 4 5 6 7 8 9 10 11] [2 3 4 5 6 7 8 9 10 11]{3} 1{3} [2 3 4 5 6 7 8 9 10 11]{9} [2 3 4 5 6 7 8 9 10 11] [2 3 4 5 6 7 8 9 10 11]{4} 1{2} [2 3 4 5 6 7 8 9 10 11]{9} [2 3 4 5 6 7 8 9 10 11] [2 3 4 5 6 7 8 9 10 11]{4} 1{2} [2 3 4 5 6 7 8 9 10 11]{9} [2 3 4 5 6 7 8 9 10 11] [2 3 4 5 6 7 8 9 10 11]{4} 1{2} [2 3 4 5 6 7 8 9 10 11]{9} [2 3 4 5 6 7 8 9 10 11] [2 3 4 5 6 7 8 9 10 11]{4} 1{1} [2 3 4 5 6 7 8 9 10 11]*) | ([2 3 4 5 6 7 8 9 10 11]* 1{1} [2 3 4 5 6 7 8 9 10 11]{14} [2 3 4 5 6 7 8 9 10 11] 1{1} [2 3 4 5 6 7 8 9 10 11]{14} [2 3 4 5 6 7 8 9 10 11] 1{3} [2 3 4 5 6 7 8 9 10 11]{12} [2 3 4 5 6 7 8 9 10 11] 1{2} [2 3 4 5 6 7 8 9 10 11]{13} [2 3 4 5 6 7 8 9 10 11] 1{2} [2 3 4 5 6 7 8 9 10 11]{13} [2 3 4 5 6 7 8 9 10 11] 1{3} [2 3 4 5 6 7 8 9 10 11]{12} [2 3 4 5 6 7 8 9 10 11] 1{3} [2 3 4 5 6 7 8 9 10 11]{12} [2 3 4 5 6 7 8 9 10 11] 1{3} [2 3 4 5 6 7 8 9 10 11]{1} 1{4} [2 3 4 5 6 7 8 9 10 11]{7} [2 3 4 5 6 7 8 9 10 11] 1{9} [2 3 4 5 6 7 8 9 10 11]{6} [2 3 4 5 6 7 8 9 10 11] 1{1} [2 3 4 5 6 7 8 9 10 11]{2} 1{2} [2 3 4 5 6 7 8 9 10 11]*) | ([2 3 4 5 6 7 8 9 10 11]* 1{1} [2 3 4 5 6 7 8 9 10 11]{4} [2 3 4 5 6 7 8 9 10 11] [2 3 4 5 6 7 8 9 10 11]{9} 1{2} [2 3 4 5 6 7 8 9 10 11]{4} [2 3 4 5 6 7 8 9 10 11] [2 3 4 5 6 7 8 9 10 11]{9} 1{2} [2 3 4 5 6 7 8 9 10 11]{4} [2 3 4 5 6 7 8 9 10 11] [2 3 4 5 6 7 8 9 10 11]{9} 1{2} [2 3 4 5 6 7 8 9 10 11]{4} [2 3 4 5 6 7 8 9 10 11] [2 3 4 5 6 7 8 9 10 11]{9} 1{3} [2 3 4 5 6 7 8 9 10 11]{3} [2 3 4 5 6 7 8 9 10 11] [2 3 4 5 6 7 8 9 10 11]{10} 1{2} [2 3 4 5 6 7 8 9 10 11]{3} [2 3 4 5 6 7 8 9 10 11] [2 3 4 5 6 7 8 9 10 11]{4} 1{1} [2 3 4 5 6 7 8 9 10 11]{2} 1{4} [2 3 4 5 6 7 8 9 10 11]{4} [2 3 4 5 6 7 8 9 10 11] [2 3 4 5 6 7 8 9 10 11]{4} 1{7} [2 3 4 5 6 7 8 9 10 11]{4} [2 3 4 5 6 7 8 9 10 11] [2 3 4 5 6 7 8 9 10 11]{2} 1{10} [2 3 4 5 6 7 8 9 10 11]*) )",
    "( ([1 3 4 5 6 7 8 9 10 11]* 2{10} [1 3 4 5 6 7 8 9 10 11]{5} [1 3 4 5 6 7 8 9 10 11] [1 3 4 5 6 7 8 9 10 11]{2} 2{8} [1 3 4 5 6 7 8 9 10 11]{5} [1 3 4 5 6 7 8 9 10 11] [1 3 4 5 6 7 8 9 10 11]{2} 2{8} [1 3 4 5 6 7 8 9 10 11]{5} [1 3 4 5 6 7 8 9 10 11] [1 3 4 5 6 7 8 9 10 11]{2} 2{1} [1 3 4 5 6 7 8 9 10 11]{2} 2{4} [1 3 4 5 6 7 8 9 10 11]*) | ([1 3 4 5 6 7 8 9 10 11]* 2{1} [1 3 4 5 6 7 8 9 10 11] [1 3 4 5 6 7 8 9 10 11]{14} 2{1} [1 3 4 5 6 7 8 9 10 11] [1 3 4 5 6 7 8 9 10 11]{11} 2{4} [1 3 4 5 6 7 8 9 10 11] [1 3 4 5 6 7 8 9 10 11]{12} 2{3} [1 3 4 5 6 7 8 9 10 11] [1 3 4 5 6 7 8 9 10 11]{12} 2{3} [1 3 4 5 6 7 8 9 10 11] [1 3 4 5 6 7 8 9 10 11]{11} 2{4} [1 3 4 5 6 7 8 9 10 11] [1 3 4 5 6 7 8 9 10 11]{11} 2{4} [1 3 4 5 6 7 8 9 10 11] [1 3 4 5 6 7 8 9 10 11]{11} 2{4} [1 3 4 5 6 7 8 9 10 11] [1 3 4 5 6 7 8 9 10 11]{11} 2{4} [1 3 4 5 6 7 8 9 10 11] [1 3 4 5 6 7 8 9 10 11]{12} 2{3} [1 3 4 5 6 7 8 9 10 11]*) | ([1 3 4 5 6 7 8 9 10 11]* 2{4} [1 3 4 5 6 7 8 9 10 11]{2} 2{1} [1 3 4 5 6 7 8 9 10 11]{2} [1 3 4 5 6 7 8 9 10 11] [1 3 4 5 6 7 8 9 10 11]{5} 2{8} [1 3 4 5 6 7 8 9 10 11]{2} [1 3 4 5 6 7 8 9 10 11] [1 3 4 5 6 7 8 9 10 11]{5} 2{8} [1 3 4 5 6 7 8 9 10 11]{2} [1 3 4 5 6 7 8 9 10 11] [1 3 4 5 6 7 8 9 10 11]{5} 2{10} [1 3 4 5 6 7 8 9 10 11]*) | ([1 3 4 5 6 7 8 9 10 11]* 2{3} [1 3 4 5 6 7 8 9 10 11]{12} [1 3 4 5 6 7 8 9 10 11] 2{4} [1 3 4 5 6 7 8 9 10 11]{11} [1 3 4 5 6 7 8 9 10 11] 2{4} [1 3 4 5 6 7 8 9 10 11]{11} [1 3 4 5 6 7 8 9 10 11] 2{4} [1 3 4 5 6 7 8 9 10 11]{11} [1 3 4 5 6 7 8 9 10 11] 2{4} [1 3 4 5 6 7 8 9 10 11]{11} [1 3 4 5 6 7 8 9 10 11] 2{3} [1 3 4 5 6 7 8 9 10 11]{12} [1 3 4 5 6 7 8 9 10 11] 2{3} [1 3 4 5 6 7 8 9 10 11]{12} [1 3 4 5 6 7 8 9 10 11] 2{4} [1 3 4 5 6 7 8 9 10 11]{11} [1 3 4 5 6 7 8 9 10 11] 2{1} [1 3 4 5 6 7 8 9 10 11]{14} [1 3 4 5 6 7 8 9 10 11] 2{1} [1 3 4 5 6 7 8 9 10 11]*) | ([1 3 4 5 6 7 8 9 10 11]* 2{10} [1 3 4 5 6 7 8 9 10 11] [1 3 4 5 6 7 8 9 10 11]{5} 2{8} [1 3 4 5 6 7 8 9 10 11]{2} [1 3 4 5 6 7 8 9 10 11] [1 3 4 5 6 7 8 9 10 11]{5} 2{8} [1 3 4 5 6 7 8 9 10 11]{2} [1 3 4 5 6 7 8 9 10 11] [1 3 4 5 6 7 8 9 10 11]{6} 2{4} [1 3 4 5 6 7 8 9 10 11]{2} 2{1} [1 3 4 5 6 7 8 9 10 11]*) | ([1 3 4 5 6 7 8 9 10 11]* 2{1} [1 3 4 5 6 7 8 9 10 11]{14} [1 3 4 5 6 7 8 9 10 11] 2{1} [1 3 4 5 6 7 8 9 10 11]{14} [1 3 4 5 6 7 8 9 10 11] 2{4} [1 3 4 5 6 7 8 9 10 11]{11} [1 3 4 5 6 7 8 9 10 11] 2{3} [1 3 4 5 6 7 8 9 10 11]{12} [1 3 4 5 6 7 8 9 10 11] 2{3} [1 3 4 5 6 7 8 9 10 11]{12} [1 3 4 5 6 7 8 9 10 11] 2{4} [1 3 4 5 6 7 8 9 10 11]{11} [1 3 4 5 6 7 8 9 10 11] 2{4} [1 3 4 5 6 7 8 9 10 11]{11} [1 3 4 5 6 7 8 9 10 11] 2{4} [1 3 4 5 6 7 8 9 10 11]{11} [1 3 4 5 6 7 8 9 10 11] 2{4} [1 3 4 5 6 7 8 9 10 11]{11} [1 3 4 5 6 7 8 9 10 11] 2{3} [1 3 4 5 6 7 8 9 10 11]*) | ([1 3 4 5 6 7 8 9 10 11]* 2{1} [1 3 4 5 6 7 8 9 10 11]{2} 2{4} [1 3 4 5 6 7 8 9 10 11]{6} [1 3 4 5 6 7 8 9 10 11] [1 3 4 5 6 7 8 9 10 11]{2} 2{8} [1 3 4 5 6 7 8 9 10 11]{5} [1 3 4 5 6 7 8 9 10 11] [1 3 4 5 6 7 8 9 10 11]{2} 2{8} [1 3 4 5 6 7 8 9 10 11]{5} [1 3 4 5 6 7 8 9 10 11] 2{10} [1 3 4 5 6 7 8 9 10 11]*) | ([1 3 4 5 6 7 8 9 10 11]* 2{3} [1 3 4 5 6 7 8 9 10 11] [1 3 4 5 6 7 8 9 10 11]{11} 2{4} [1 3 4 5 6 7 8 9 10 11] [1 3 4 5 6 7 8 9 10 11]{11} 2{4} [1 3 4 5 6 7 8 9 10 11] [1 3 4 5 6 7 8 9 10 11]{11} 2{4} [1 3 4 5 6 7 8 9 10 11] [1 3 4 5 6 7 8 9 10 11]{11} 2{4} [1 3 4 5 6 7 8 9 10 11] [1 3 4 5 6 7 8 9 10 11]{12} 2{3} [1 3 4 5 6 7 8 9 10 11] [1 3 4 5 6 7 8 9 10 11]{12} 2{3} [1 3 4 5 6 7 8 9 10 11] [1 3 4 5 6 7 8 9 10 11]{11} 2{4} [1 3 4 5 6 7 8 9 10 11] [1 3 4 5 6 7 8 9 10 11]{14} 2{1} [1 3 4 5 6 7 8 9 10 11] [1 3 4 5 6 7 8 9 10 11]{14} 2{1} [1 3 4 5 6 7 8 9 10 11]*) )",
    "( ([1 2 4 5 6 7 8 9 10 11]* 3{2} [1 2 4 5 6 7 8 9 10 11]*) | ([1 2 4 5 6 7 8 9 10 11]* 3{1} [1 2 4 5 6 7 8 9 10 11]{6} [1 2 4 5 6 7 8 9 10 11] [1 2 4 5 6 7 8 9 10 11]{8} 3{1} [1 2 4 5 6 7 8 9 10 11]*) | ([1 2 4 5 6 7 8 9 10 11]* 3{1} [1 2 4 5 6 7 8 9 10 11]{8} [1 2 4 5 6 7 8 9 10 11] [1 2 4 5 6 7 8 9 10 11]{6} 3{1} [1 2 4 5 6 7 8 9 10 11]*) )",
    "( ([1 2 3 5 6 7 8 9 10 11]* 4{1} [1 2 3 5 6 7 8 9 10 11]*) )",
    "( ([1 2 3 4 6 7 8 9 10 11]* 5{2} [1 2 3 4 6 7 8 9 10 11]{13} [1 2 3 4 6 7 8 9 10 11] 5{2} [1 2 3 4 6 7 8 9 10 11]{13} [1 2 3 4 6 7 8 9 10 11] [1 2 3 4 6 7 8 9 10 11]{1} 5{1} [1 2 3 4 6 7 8 9 10 11]*) | ([1 2 3 4 6 7 8 9 10 11]* 5{2} [1 2 3 4 6 7 8 9 10 11]{1} [1 2 3 4 6 7 8 9 10 11] [1 2 3 4 6 7 8 9 10 11]{11} 5{3} [1 2 3 4 6 7 8 9 10 11]*) | ([1 2 3 4 6 7 8 9 10 11]* 5{1} [1 2 3 4 6 7 8 9 10 11]{1} [1 2 3 4 6 7 8 9 10 11] [1 2 3 4 6 7 8 9 10 11]{13} 5{2} [1 2 3 4 6 7 8 9 10 11] [1 2 3 4 6 7 8 9 10 11]{13} 5{2} [1 2 3 4 6 7 8 9 10 11]*) | ([1 2 3 4 6 7 8 9 10 11]* 5{3} [1 2 3 4 6 7 8 9 10 11]{11} [1 2 3 4 6 7 8 9 10 11] [1 2 3 4 6 7 8 9 10 11]{1} 5{2} [1 2 3 4 6 7 8 9 10 11]*) | ([1 2 3 4 6 7 8 9 10 11]* 5{2} [1 2 3 4 6 7 8 9 10 11] [1 2 3 4 6 7 8 9 10 11]{13} 5{2} [1 2 3 4 6 7 8 9 10 11] [1 2 3 4 6 7 8 9 10 11]{13} 5{1} [1 2 3 4 6 7 8 9 10 11]*) | ([1 2 3 4 6 7 8 9 10 11]* 5{2} [1 2 3 4 6 7 8 9 10 11]{12} [1 2 3 4 6 7 8 9 10 11] [1 2 3 4 6 7 8 9 10 11]{1} 5{3} [1 2 3 4 6 7 8 9 10 11]*) | ([1 2 3 4 6 7 8 9 10 11]* 5{1} [1 2 3 4 6 7 8 9 10 11]{13} [1 2 3 4 6 7 8 9 10 11] 5{2} [1 2 3 4 6 7 8 9 10 11]{13} [1 2 3 4 6 7 8 9 10 11] 5{2} [1 2 3 4 6 7 8 9 10 11]*) | ([1 2 3 4 6 7 8 9 10 11]* 5{3} [1 2 3 4 6 7 8 9 10 11]{1} [1 2 3 4 6 7 8 9 10 11] [1 2 3 4 6 7 8 9 10 11]{12} 5{2} [1 2 3 4 6 7 8 9 10 11]*) )",
    "( ([1 2 3 4 5 7 8 9 10 11]* 6{1} [1 2 3 4 5 7 8 9 10 11]{4} 6{4} [1 2 3 4 5 7 8 9 10 11]{3} [1 2 3 4 5 7 8 9 10 11] [1 2 3 4 5 7 8 9 10 11]{3} 6{1} [1 2 3 4 5 7 8 9 10 11]{2} 6{5} [1 2 3 4 5 7 8 9 10 11]{4} [1 2 3 4 5 7 8 9 10 11] [1 2 3 4 5 7 8 9 10 11]{3} 6{7} [1 2 3 4 5 7 8 9 10 11]{5} [1 2 3 4 5 7 8 9 10 11] [1 2 3 4 5 7 8 9 10 11]{2} 6{6} [1 2 3 4 5 7 8 9 10 11]{7} [1 2 3 4 5 7 8 9 10 11] [1 2 3 4 5 7 8 9 10 11]{2} 6{4} [1 2 3 4 5 7 8 9 10 11]{1} 6{1} [1 2 3 4 5 7 8 9 10 11]*) | ([1 2 3 4 5 7 8 9 10 11]* 6{2} [1 2 3 4 5 7 8 9 10 11]{8} [1 2 3 4 5 7 8 9 10 11] [1 2 3 4 5 7 8 9 10 11]{5} 6{5} [1 2 3 4 5 7 8 9 10 11]{5} [1 2 3 4 5 7 8 9 10 11] [1 2 3 4 5 7 8 9 10 11]{5} 6{3} [1 2 3 4 5 7 8 9 10 11]{7} [1 2 3 4 5 7 8 9 10 11] [1 2 3 4 5 7 8 9 10 11]{5} 6{3} [1 2 3 4 5 7 8 9 10 11]{7} [1 2 3 4 5 7 8 9 10 11] [1 2 3 4 5 7 8 9 10 11]{6} 6{3} [1 2 3 4 5 7 8 9 10 11]{6} [1 2 3 4 5 7 8 9 10 11] [1 2 3 4 5 7 8 9 10 11]{5} 6{4} [1 2 3 4 5 7 8 9 10 11]{6} [1 2 3 4 5 7 8 9 10 11] [1 2 3 4 5 7 8 9 10 11]{7} 6{3} [1 2 3 4 5 7 8 9 10 11]{5} [1 2 3 4 5 7 8 9 10 11] [1 2 3 4 5 7 8 9 10 11]{7} 6{3} [1 2 3 4 5 7 8 9 10 11]{5} [1 2 3 4 5 7 8 9 10 11] [1 2 3 4 5 7 8 9 10 11]{8} 6{2} [1 2 3 4 5 7 8 9 10 11]{5} [1 2 3 4 5 7 8 9 10 11] [1 2 3 4 5 7 8 9 10 11]{9} 6{1} [1 2 3 4 5 7 8 9 10 11]*) | ([1 2 3 4 5 7 8 9 10 11]* 6{1} [1 2 3 4 5 7 8 9 10 11]{1} 6{4} [1 2 3 4 5 7 8 9 10 11]{2} [1 2 3 4 5 7 8 9 10 11] [1 2 3 4 5 7 8 9 10 11]{7} 6{6} [1 2 3 4 5 7 8 9 10 11]{2} [1 2 3 4 5 7 8 9 10 11] [1 2 3 4 5 7 8 9 10 11]{5} 6{7} [1 2 3 4 5 7 8 9 10 11]{3} [1 2 3 4 5 7 8 9 10 11] [1 2 3 4 5 7 8 9 10 11]{4} 6{5} [1 2 3 4 5 7 8 9 10 11]{2} 6{1} [1 2 3 4 5 7 8 9 10 11]{3} [1 2 3 4 5 7 8 9 10 11] [1 2 3 4 5 7 8 9 10 11]{3} 6{4} [1 2 3 4 5 7 8 9 10 11]{4} 6{1} [1 2 3 4 5 7 8 9 10 11]*) | ([1 2 3 4 5 7 8 9 10 11]* 6{1} [1 2 3 4 5 7 8 9 10 11]{9} [1 2 3 4 5 7 8 9 10 11] [1 2 3 4 5 7 8 9 10 11]{5} 6{2} [1 2 3 4 5 7 8 9 10 11]{8} [1 2 3 4 5 7 8 9 10 11] [1 2 3 4 5 7 8 9 10 11]{5} 6{3} [1 2 3 4 5 7 8 9 10 11]{7} [1 2 3 4 5 7 8 9 10 11] [1 2 3 4 5 7 8 9 10 11]{5} 6{3} [1 2 3 4 5 7 8 9 10 11]{7} [1 2 3 4 5 7 8 9 10 11] [1 2 3 4 5 7 8 9 10 11]{6} 6{4} [1 2 3 4 5 7 8 9 10 11]{5} [1 2 3 4 5 7 8 9 10 11] [1 2 3 4 5 7 8 9 10 11]{6} 6{3} [1 2 3 4 5 7 8 9 10 11]{6} [1 2 3 4 5 7 8 9 10 11] [1 2 3 4 5 7 8 9 10 11]{7} 6{3} [1 2 3 4 5 7 8 9 10 11]{5} [1 2 3 4 5 7 8 9 10 11] [1 2 3 4 5 7 8 9 10 11]{7} 6{3} [1 2 3 4 5 7 8 9 10 11]{5} [1 2 3 4 5 7 8 9 10 11] [1 2 3 4 5 7 8 9 10 11]{5} 6{5} [1 2 3 4 5 7 8 9 10 11]{5} [1 2 3 4 5 7 8 9 10 11] [1 2 3 4 5 7 8 9 10 11]{8} 6{2} [1 2 3 4 5 7 8 9 10 11]*) | ([1 2 3 4 5 7 8 9 10 11]* 6{4} [1 2 3 4 5 7 8 9 10 11]{4} 6{1} [1 2 3 4 5 7 8 9 10 11]{3} [1 2 3 4 5 7 8 9 10 11] [1 2 3 4 5 7 8 9 10 11]{4} 6{5} [1 2 3 4 5 7 8 9 10 11]{2} 6{1} [1 2 3 4 5 7 8 9 10 11]{3} [1 2 3 4 5 7 8 9 10 11] [1 2 3 4 5 7 8 9 10 11]{5} 6{7} [1 2 3 4 5 7 8 9 10 11]{3} [1 2 3 4 5 7 8 9 10 11] [1 2 3 4 5 7 8 9 10 11]{7} 6{6} [1 2 3 4 5 7 8 9 10 11]{2} [1 2 3 4 5 7 8 9 10 11] [1 2 3 4 5 7 8 9 10 11]{7} 6{1} [1 2 3 4 5 7 8 9 10 11]{1} 6{4} [1 2 3 4 5 7 8 9 10 11]*) | ([1 2 3 4 5 7 8 9 10 11]* 6{2} [1 2 3 4 5 7 8 9 10 11]{5} [1 2 3 4 5 7 8 9 10 11] [1 2 3 4 5 7 8 9 10 11]{5} 6{5} [1 2 3 4 5 7 8 9 10 11]{5} [1 2 3 4 5 7 8 9 10 11] [1 2 3 4 5 7 8 9 10 11]{7} 6{3} [1 2 3 4 5 7 8 9 10 11]{5} [1 2 3 4 5 7 8 9 10 11] [1 2 3 4 5 7 8 9 10 11]{7} 6{3} [1 2 3 4 5 7 8 9 10 11]{5} [1 2 3 4 5 7 8 9 10 11] [1 2 3 4 5 7 8 9 10 11]{6} 6{3} [1 2 3 4 5 7 8 9 10 11]{6} [1 2 3 4 5 7 8 9 10 11] [1 2 3 4 5 7 8 9 10 11]{6} 6{4} [1 2 3 4 5 7 8 9 10 11]{5} [1 2 3 4 5 7 8 9 10 11] [1 2 3 4 5 7 8 9 10 11]{5} 6{3} [1 2 3 4 5 7 8 9 10 11]{7} [1 2 3 4 5 7 8 9 10 11] [1 2 3 4 5 7 8 9 10 11]{5} 6{3} [1 2 3 4 5 7 8 9 10 11]{7} [1 2 3 4 5 7 8 9 10 11] [1 2 3 4 5 7 8 9 10 11]{5} 6{2} [1 2 3 4 5 7 8 9 10 11]{8} [1 2 3 4 5 7 8 9 10 11] [1 2 3 4 5 7 8 9 10 11]{5} 6{1} [1 2 3 4 5 7 8 9 10 11]*) | ([1 2 3 4 5 7 8 9 10 11]* 6{4} [1 2 3 4 5 7 8 9 10 11]{1} 6{1} [1 2 3 4 5 7 8 9 10 11]{7} [1 2 3 4 5 7 8 9 10 11] [1 2 3 4 5 7 8 9 10 11]{2} 6{6} [1 2 3 4 5 7 8 9 10 11]{7} [1 2 3 4 5 7 8 9 10 11] [1 2 3 4 5 7 8 9 10 11]{3} 6{7} [1 2 3 4 5 7 8 9 10 11]{5} [1 2 3 4 5 7 8 9 10 11] [1 2 3 4 5 7 8 9 10 11]{3} 6{1} [1 2 3 4 5 7 8 9 10 11]{2} 6{5} [1 2 3 4 5 7 8 9 10 11]{4} [1 2 3 4 5 7 8 9 10 11] [1 2 3 4 5 7 8 9 10 11]{3} 6{1} [1 2 3 4 5 7 8 9 10 11]{4} 6{4} [1 2 3 4 5 7 8 9 10 11]*) | ([1 2 3 4 5 7 8 9 10 11]* 6{1} [1 2 3 4 5 7 8 9 10 11]{5} [1 2 3 4 5 7 8 9 10 11] [1 2 3 4 5 7 8 9 10 11]{8} 6{2} [1 2 3 4 5 7 8 9 10 11]{5} [1 2 3 4 5 7 8 9 10 11] [1 2 3 4 5 7 8 9 10 11]{7} 6{3} [1 2 3 4 5 7 8 9 10 11]{5} [1 2 3 4 5 7 8 9 10 11] [1 2 3 4 5 7 8 9 10 11]{7} 6{3} [1 2 3 4 5 7 8 9 10 11]{5} [1 2 3 4 5 7 8 9 10 11] [1 2 3 4 5 7 8 9 10 11]{5} 6{4} [1 2 3 4 5 7 8 9 10 11]{6} [1 2 3 4 5 7 8 9 10 11] [1 2 3 4 5 7 8 9 10 11]{6} 6{3} [1 2 3 4 5 7 8 9 10 11]{6} [1 2 3 4 5 7 8 9 10 11] [1 2 3 4 5 7 8 9 10 11]{5} 6{3} [1 2 3 4 5 7 8 9 10 11]{7} [1 2 3 4 5 7 8 9 10 11] [1 2 3 4 5 7 8 9 10 11]{5} 6{3} [1 2 3 4 5 7 8 9 10 11]{7} [1 2 3 4 5 7 8 9 10 11] [1 2 3 4 5 7 8 9 10 11]{5} 6{5} [1 2 3 4 5 7 8 9 10 11]{5} [1 2 3 4 5 7 8 9 10 11] [1 2 3 4 5 7 8 9 10 11]{5} 6{2} [1 2 3 4 5 7 8 9 10 11]*) )",
    "( ([1 2 3 4 5 6 8 9 10 11]* 7{4} [1 2 3 4 5 6 8 9 10 11]{1} [1 2 3 4 5 6 8 9 10 11] [1 2 3 4 5 6 8 9 10 11]{10} 7{5} [1 2 3 4 5 6 8 9 10 11] [1 2 3 4 5 6 8 9 10 11]{10} 7{5} [1 2 3 4 5 6 8 9 10 11] [1 2 3 4 5 6 8 9 10 11]{9} 7{6} [1 2 3 4 5 6 8 9 10 11] [1 2 3 4 5 6 8 9 10 11]{9} 7{6} [1 2 3 4 5 6 8 9 10 11] [1 2 3 4 5 6 8 9 10 11]{12} 7{3} [1 2 3 4 5 6 8 9 10 11] [1 2 3 4 5 6 8 9 10 11]{12} 7{3} [1 2 3 4 5 6 8 9 10 11] [1 2 3 4 5 6 8 9 10 11]{12} 7{3} [1 2 3 4 5 6 8 9 10 11] [1 2 3 4 5 6 8 9 10 11]{12} 7{3} [1 2 3 4 5 6 8 9 10 11] [1 2 3 4 5 6 8 9 10 11]{12} 7{3} [1 2 3 4 5 6 8 9 10 11] [1 2 3 4 5 6 8 9 10 11]{14} 7{1} [1 2 3 4 5 6 8 9 10 11]*) | ([1 2 3 4 5 6 8 9 10 11]* 7{2} [1 2 3 4 5 6 8 9 10 11]{3} [1 2 3 4 5 6 8 9 10 11] [1 2 3 4 5 6 8 9 10 11]{10} 7{5} [1 2 3 4 5 6 8 9 10 11] [1 2 3 4 5 6 8 9 10 11]{10} 7{5} [1 2 3 4 5 6 8 9 10 11] [1 2 3 4 5 6 8 9 10 11]{5} 7{10} [1 2 3 4 5 6 8 9 10 11] [1 2 3 4 5 6 8 9 10 11]{5} 7{10} [1 2 3 4 5 6 8 9 10 11] [1 2 3 4 5 6 8 9 10 11]{4} 7{10} [1 2 3 4 5 6 8 9 10 11]*) | ([1 2 3 4 5 6 8 9 10 11]* 7{1} [1 2 3 4 5 6 8 9 10 11]{14} [1 2 3 4 5 6 8 9 10 11] 7{3} [1 2 3 4 5 6 8 9 10 11]{12} [1 2 3 4 5 6 8 9 10 11] 7{3} [1 2 3 4 5 6 8 9 10 11]{12} [1 2 3 4 5 6 8 9 10 11] 7{3} [1 2 3 4 5 6 8 9 10 11]{12} [1 2 3 4 5 6 8 9 10 11] 7{3} [1 2 3 4 5 6 8 9 10 11]{12} [1 2 3 4 5 6 8 9 10 11] 7{3} [1 2 3 4 5 6 8 9 10 11]{12} [1 2 3 4 5 6 8 9 10 11] 7{6} [1 2 3 4 5 6 8 9 10 11]{9} [1 2 3 4 5 6 8 9 10 11] 7{6} [1 2 3 4 5 6 8 9 10 11]{9} [1 2 3 4 5 6 8 9 10 11] 7{5} [1 2 3 4 5 6 8 9 10 11]{10} [1 2 3 4 5 6 8 9 10 11] 7{5} [1 2 3 4 5 6 8 9 10 11]{10} [1 2 3 4 5 6 8 9 10 11] [1 2 3 4 5 6 8 9 10 11]{1} 7{4} [1 2 3 4 5 6 8 9 10 11]*) | ([1 2 3 4 5 6 8 9 10 11]* 7{10} [1 2 3 4 5 6 8 9 10 11]{4} [1 2 3 4 5 6 8 9 10 11] 7{10} [1 2 3 4 5 6 8 9 10 11]{5} [1 2 3 4 5 6 8 9 10 11] 7{10} [1 2 3 4 5 6 8 9 10 11]{5} [1 2 3 4 5 6 8 9 10 11] 7{5} [1 2 3 4 5 6 8 9 10 11]{10} [1 2 3 4 5 6 8 9 10 11] 7{5} [1 2 3 4 5 6 8 9 10 11]{10} [1 2 3 4 5 6 8 9 10 11] [1 2 3 4 5 6 8 9 10 11]{3} 7{2} [1 2 3 4 5 6 8 9 10 11]*) | ([1 2 3 4 5 6 8 9 10 11]* 7{4} [1 2 3 4 5 6 8 9 10 11]{10} [1 2 3 4 5 6 8 9 10 11] 7{5} [1 2 3 4 5 6 8 9 10 11]{10} [1 2 3 4 5 6 8 9 10 11] 7{5} [1 2 3 4 5 6 8 9 10 11]{10} [1 2 3 4 5 6 8 9 10 11] 7{6} [1 2 3 4 5 6 8 9 10 11]{9} [1 2 3 4 5 6 8 9 10 11] 7{6} [1 2 3 4 5 6 8 9 10 11]{9} [1 2 3 4 5 6 8 9 10 11] 7{3} [1 2 3 4 5 6 8 9 10 11]{12} [1 2 3 4 5 6 8 9 10 11] 7{3} [1 2 3 4 5 6 8 9 10 11]{12} [1 2 3 4 5 6 8 9 10 11] 7{3} [1 2 3 4 5 6 8 9 10 11]{12} [1 2 3 4 5 6 8 9 10 11] 7{3} [1 2 3 4 5 6 8 9 10 11]{12} [1 2 3 4 5 6 8 9 10 11] 7{3} [1 2 3 4 5 6 8 9 10 11]{12} [1 2 3 4 5 6 8 9 10 11] 7{1} [1 2 3 4 5 6 8 9 10 11]*) | ([1 2 3 4 5 6 8 9 10 11]* 7{2} [1 2 3 4 5 6 8 9 10 11]{10} [1 2 3 4 5 6 8 9 10 11] 7{5} [1 2 3 4 5 6 8 9 10 11]{10} [1 2 3 4 5 6 8 9 10 11] 7{5} [1 2 3 4 5 6 8 9 10 11]{10} [1 2 3 4 5 6 8 9 10 11] 7{10} [1 2 3 4 5 6 8 9 10 11]{5} [1 2 3 4 5 6 8 9 10 11] 7{10} [1 2 3 4 5 6 8 9 10 11]{5} [1 2 3 4 5 6 8 9 10 11] [1 2 3 4 5 6 8 9 10 11]{1} 7{10} [1 2 3 4 5 6 8 9 10 11]*) | ([1 2 3 4 5 6 8 9 10 11]* 7{1} [1 2 3 4 5 6 8 9 10 11] [1 2 3 4 5 6 8 9 10 11]{12} 7{3} [1 2 3 4 5 6 8 9 10 11] [1 2 3 4 5 6 8 9 10 11]{12} 7{3} [1 2 3 4 5 6 8 9 10 11] [1 2 3 4 5 6 8 9 10 11]{12} 7{3} [1 2 3 4 5 6 8 9 10 11] [1 2 3 4 5 6 8 9 10 11]{12} 7{3} [1 2 3 4 5 6 8 9 10 11] [1 2 3 4 5 6 8 9 10 11]{12} 7{3} [1 2 3 4 5 6 8 9 10 11] [1 2 3 4 5 6 8 9 10 11]{9} 7{6} [1 2 3 4 5 6 8 9 10 11] [1 2 3 4 5 6 8 9 10 11]{9} 7{6} [1 2 3 4 5 6 8 9 10 11] [1 2 3 4 5 6 8 9 10 11]{10} 7{5} [1 2 3 4 5 6 8 9 10 11] [1 2 3 4 5 6 8 9 10 11]{10} 7{5} [1 2 3 4 5 6 8 9 10 11] [1 2 3 4 5 6 8 9 10 11]{10} 7{4} [1 2 3 4 5 6 8 9 10 11]*) | ([1 2 3 4 5 6 8 9 10 11]* 7{10} [1 2 3 4 5 6 8 9 10 11]{1} [1 2 3 4 5 6 8 9 10 11] [1 2 3 4 5 6 8 9 10 11]{5} 7{10} [1 2 3 4 5 6 8 9 10 11] [1 2 3 4 5 6 8 9 10 11]{5} 7{10} [1 2 3 4 5 6 8 9 10 11] [1 2 3 4 5 6 8 9 10 11]{10} 7{5} [1 2 3 4 5 6 8 9 10 11] [1 2 3 4 5 6 8 9 10 11]{10} 7{5} [1 2 3 4 5 6 8 9 10 11] [1 2 3 4 5 6 8 9 10 11]{10} 7{2} [1 2 3 4 5 6 8 9 10 11]*) )",
    "( ([1 2 3 4 5 6 7 9 10 11]* 8{1} [1 2 3 4 5 6 7 9 10 11]{3} [1 2 3 4 5 6 7 9 10 11] [1 2 3 4 5 6 7 9 10 11]{10} 8{2} [1 2 3 4 5 6 7 9 10 11]{3} [1 2 3 4 5 6 7 9 10 11] [1 2 3 4 5 6 7 9 10 11]{8} 8{4} [1 2 3 4 5 6 7 9 10 11]{3} [1 2 3 4 5 6 7 9 10 11] [1 2 3 4 5 6 7 9 10 11]{8} 8{4} [1 2 3 4 5 6 7 9 10 11]{3} [1 2 3 4 5 6 7 9 10 11] [1 2 3 4 5 6 7 9 10 11]{7} 8{7} [1 2 3 4 5 6 7 9 10 11]{1} [1 2 3 4 5 6 7 9 10 11] [1 2 3 4 5 6 7 9 10 11]{7} 8{8} [1 2 3 4 5 6 7 9 10 11] [1 2 3 4 5 6 7 9 10 11]{7} 8{8} [1 2 3 4 5 6 7 9 10 11] [1 2 3 4 5 6 7 9 10 11]{8} 8{7} [1 2 3 4 5 6 7 9 10 11] [1 2 3 4 5 6 7 9 10 11]{8} 8{7} [1 2 3 4 5 6 7 9 10 11]*) | ([1 2 3 4 5 6 7 9 10 11]* 8{3} [1 2 3 4 5 6 7 9 10 11]{10} [1 2 3 4 5 6 7 9 10 11] 8{7} [1 2 3 4 5 6 7 9 10 11]{8} [1 2 3 4 5 6 7 9 10 11] 8{7} [1 2 3 4 5 6 7 9 10 11]{8} [1 2 3 4 5 6 7 9 10 11] 8{8} [1 2 3 4 5 6 7 9 10 11]{7} [1 2 3 4 5 6 7 9 10 11] 8{9} [1 2 3 4 5 6 7 9 10 11]{6} [1 2 3 4 5 6 7 9 10 11] 8{5} [1 2 3 4 5 6 7 9 10 11]{10} [1 2 3 4 5 6 7 9 10 11] 8{5} [1 2 3 4 5 6 7 9 10 11]{10} [1 2 3 4 5 6 7 9 10 11] 8{4} [1 2 3 4 5 6 7 9 10 11]*) | ([1 2 3 4 5 6 7 9 10 11]* 8{7} [1 2 3 4 5 6 7 9 10 11]{8} [1 2 3 4 5 6 7 9 10 11] 8{7} [1 2 3 4 5 6 7 9 10 11]{8} [1 2 3 4 5 6 7 9 10 11] 8{8} [1 2 3 4 5 6 7 9 10 11]{7} [1 2 3 4 5 6 7 9 10 11] 8{8} [1 2 3 4 5 6 7 9 10 11]{7} [1 2 3 4 5 6 7 9 10 11] [1 2 3 4 5 6 7 9 10 11]{1} 8{7} [1 2 3 4 5 6 7 9 10 11]{7} [1 2 3 4 5 6 7 9 10 11] [1 2 3 4 5 6 7 9 10 11]{3} 8{4} [1 2 3 4 5 6 7 9 10 11]{8} [1 2 3 4 5 6 7 9 10 11] [1 2 3 4 5 6 7 9 10 11]{3} 8{4} [1 2 3 4 5 6 7 9 10 11]{8} [1 2 3 4 5 6 7 9 10 11] [1 2 3 4 5 6 7 9 10 11]{3} 8{2} [1 2 3 4 5 6 7 9 10 11]{10} [1 2 3 4 5 6 7 9 10 11] [1 2 3 4 5 6 7 9 10 11]{3} 8{1} [1 2 3 4 5 6 7 9 10 11]*) | ([1 2 3 4 5 6 7 9 10 11]* 8{4} [1 2 3 4 5 6 7 9 10 11] [1 2 3 4 5 6 7 9 10 11]{10} 8{5} [1 2 3 4 5 6 7 9 10 11] [1 2 3 4 5 6 7 9 10 11]{10} 8{5} [1 2 3 4 5 6 7 9 10 11] [1 2 3 4 5 6 7 9 10 11]{6} 8{9} [1 2 3 4 5 6 7 9 10 11] [1 2 3 4 5 6 7 9 10 11]{7} 8{8} [1 2 3 4 5 6 7 9 10 11] [1 2 3 4 5 6 7 9 10 11]{8} 8{7} [1 2 3 4 5 6 7 9 10 11] [1 2 3 4 5 6 7 9 10 11]{8} 8{7} [1 2 3 4 5 6 7 9 10 11] [1 2 3 4 5 6 7 9 10 11]{10} 8{3} [1 2 3 4 5 6 7 9 10 11]*) | ([1 2 3 4 5 6 7 9 10 11]* 8{1} [1 2 3 4 5 6 7 9 10 11]{11} [1 2 3 4 5 6 7 9 10 11] [1 2 3 4 5 6 7 9 10 11]{3} 8{2} [1 2 3 4 5 6 7 9 10 11]{10} [1 2 3 4 5 6 7 9 10 11] [1 2 3 4 5 6 7 9 10 11]{3} 8{4} [1 2 3 4 5 6 7 9 10 11]{8} [1 2 3 4 5 6 7 9 10 11] [1 2 3 4 5 6 7 9 10 11]{3} 8{4} [1 2 3 4 5 6 7 9 10 11]{8} [1 2 3 4 5 6 7 9 10 11] [1 2 3 4 5 6 7 9 10 11]{1} 8{7} [1 2 3 4 5 6 7 9 10 11]{7} [1 2 3 4 5 6 7 9 10 11] 8{8} [1 2 3 4 5 6 7 9 10 11]{7} [1 2 3 4 5 6 7 9 10 11] 8{8} [1 2 3 4 5 6 7 9 10 11]{7} [1 2 3 4 5 6 7 9 10 11] 8{7} [1 2 3 4 5 6 7 9 10 11]{8} [1 2 3 4 5 6 7 9 10 11] 8{7} [1 2 3 4 5 6 7 9 10 11]*) | ([1 2 3 4 5 6 7 9 10 11]* 8{3} [1 2 3 4 5 6 7 9 10 11]{2} [1 2 3 4 5 6 7 9 10 11] [1 2 3 4 5 6 7 9 10 11]{8} 8{7} [1 2 3 4 5 6 7 9 10 11] [1 2 3 4 5 6 7 9 10 11]{8} 8{7} [1 2 3 4 5 6 7 9 10 11] [1 2 3 4 5 6 7 9 10 11]{7} 8{8} [1 2 3 4 5 6 7 9 10 11] [1 2 3 4 5 6 7 9 10 11]{6} 8{9} [1 2 3 4 5 6 7 9 10 11] [1 2 3 4 5 6 7 9 10 11]{10} 8{5} [1 2 3 4 5 6 7 9 10 11] [1 2 3 4 5 6 7 9 10 11]{10} 8{5} [1 2 3 4 5 6 7 9 10 11] [1 2 3 4 5 6 7 9 10 11]{11} 8{4} [1 2 3 4 5 6 7 9 10 11]*) | ([1 2 3 4 5 6 7 9 10 11]* 8{7} [1 2 3 4 5 6 7 9 10 11] [1 2 3 4 5 6 7 9 10 11]{8} 8{7} [1 2 3 4 5 6 7 9 10 11] [1 2 3 4 5 6 7 9 10 11]{7} 8{8} [1 2 3 4 5 6 7 9 10 11] [1 2 3 4 5 6 7 9 10 11]{7} 8{8} [1 2 3 4 5 6 7 9 10 11] [1 2 3 4 5 6 7 9 10 11]{7} 8{7} [1 2 3 4 5 6 7 9 10 11]{1} [1 2 3 4 5 6 7 9 10 11] [1 2 3 4 5 6 7 9 10 11]{8} 8{4} [1 2 3 4 5 6 7 9 10 11]{3} [1 2 3 4 5 6 7 9 10 11] [1 2 3 4 5 6 7 9 10 11]{8} 8{4} [1 2 3 4 5 6 7 9 10 11]{3} [1 2 3 4 5 6 7 9 10 11] [1 2 3 4 5 6 7 9 10 11]{10} 8{2} [1 2 3 4 5 6 7 9 10 11]{3} [1 2 3 4 5 6 7 9 10 11] [1 2 3 4 5 6 7 9 10 11]{11} 8{1} [1 2 3 4 5 6 7 9 10 11]*) | ([1 2 3 4 5 6 7 9 10 11]* 8{4} [1 2 3 4 5 6 7 9 10 11]{11} [1 2 3 4 5 6 7 9 10 11] 8{5} [1 2 3 4 5 6 7 9 10 11]{10} [1 2 3 4 5 6 7 9 10 11] 8{5} [1 2 3 4 5 6 7 9 10 11]{10} [1 2 3 4 5 6 7 9 10 11] 8{9} [1 2 3 4 5 6 7 9 10 11]{6} [1 2 3 4 5 6 7 9 10 11] 8{8} [1 2 3 4 5 6 7 9 10 11]{7} [1 2 3 4 5 6 7 9 10 11] 8{7} [1 2 3 4 5 6 7 9 10 11]{8} [1 2 3 4 5 6 7 9 10 11] 8{7} [1 2 3 4 5 6 7 9 10 11]{8} [1 2 3 4 5 6 7 9 10 11] [1 2 3 4 5 6 7 9 10 11]{2} 8{3} [1 2 3 4 5 6 7 9 10 11]*) )",
    "( ([1 2 3 4 5 6 7 8 10 11]* 9{1} [1 2 3 4 5 6 7 8 10 11]*) )",
    "( ([1 2 3 4 5 6 7 8 9 11]* 10{1} [1 2 3 4 5 6 7 8 9 11]{8} [1 2 3 4 5 6 7 8 9 11] [1 2 3 4 5 6 7 8 9 11]{3} 10{4} [1 2 3 4 5 6 7 8 9 11]{8} [1 2 3 4 5 6 7 8 9 11] [1 2 3 4 5 6 7 8 9 11]{1} 10{6} [1 2 3 4 5 6 7 8 9 11]{8} [1 2 3 4 5 6 7 8 9 11] [1 2 3 4 5 6 7 8 9 11]{1} 10{6} [1 2 3 4 5 6 7 8 9 11]{8} [1 2 3 4 5 6 7 8 9 11] 10{8} [1 2 3 4 5 6 7 8 9 11]{7} [1 2 3 4 5 6 7 8 9 11] 10{7} [1 2 3 4 5 6 7 8 9 11]*) | ([1 2 3 4 5 6 7 8 9 11]* 10{2} [1 2 3 4 5 6 7 8 9 11]{13} [1 2 3 4 5 6 7 8 9 11] 10{4} [1 2 3 4 5 6 7 8 9 11]{11} [1 2 3 4 5 6 7 8 9 11] 10{4} [1 2 3 4 5 6 7 8 9 11]{11} [1 2 3 4 5 6 7 8 9 11] 10{5} [1 2 3 4 5 6 7 8 9 11]{10} [1 2 3 4 5 6 7 8 9 11] 10{5} [1 2 3 4 5 6 7 8 9 11]{10} [1 2 3 4 5 6 7 8 9 11] 10{5} [1 2 3 4 5 6 7 8 9 11]{10} [1 2 3 4 5 6 7 8 9 11] 10{6} [1 2 3 4 5 6 7 8 9 11]{9} [1 2 3 4 5 6 7 8 9 11] [1 2 3 4 5 6 7 8 9 11]{1} 10{1} [1 2 3 4 5 6 7 8 9 11]*) | ([1 2 3 4 5 6 7 8 9 11]* 10{7} [1 2 3 4 5 6 7 8 9 11] [1 2 3 4 5 6 7 8 9 11]{7} 10{8} [1 2 3 4 5 6 7 8 9 11] [1 2 3 4 5 6 7 8 9 11]{8} 10{6} [1 2 3 4 5 6 7 8 9 11]{1} [1 2 3 4 5 6 7 8 9 11] [1 2 3 4 5 6 7 8 9 11]{8} 10{6} [1 2 3 4 5 6 7 8 9 11]{1} [1 2 3 4 5 6 7 8 9 11] [1 2 3 4 5 6 7 8 9 11]{8} 10{4} [1 2 3 4 5 6 7 8 9 11]{3} [1 2 3 4 5 6 7 8 9 11] [1 2 3 4 5 6 7 8 9 11]{8} 10{1} [1 2 3 4 5 6 7 8 9 11]*) | ([1 2 3 4 5 6 7 8 9 11]* 10{1} [1 2 3 4 5 6 7 8 9 11]{1} [1 2 3 4 5 6 7 8 9 11] [1 2 3 4 5 6 7 8 9 11]{9} 10{6} [1 2 3 4 5 6 7 8 9 11] [1 2 3 4 5 6 7 8 9 11]{10} 10{5} [1 2 3 4 5 6 7 8 9 11] [1 2 3 4 5 6 7 8 9 11]{10} 10{5} [1 2 3 4 5 6 7 8 9 11] [1 2 3 4 5 6 7 8 9 11]{10} 10{5} [1 2 3 4 5 6 7 8 9 11] [1 2 3 4 5 6 7 8 9 11]{11} 10{4} [1 2 3 4 5 6 7 8 9 11] [1 2 3 4 5 6 7 8 9 11]{11} 10{4} [1 2 3 4 5 6 7 8 9 11] [1 2 3 4 5 6 7 8 9 11]{13} 10{2} [1 2 3 4 5 6 7 8 9 11]*) | ([1 2 3 4 5 6 7 8 9 11]* 10{1} [1 2 3 4 5 6 7 8 9 11]{6} [1 2 3 4 5 6 7 8 9 11] [1 2 3 4 5 6 7 8 9 11]{8} 10{4} [1 2 3 4 5 6 7 8 9 11]{3} [1 2 3 4 5 6 7 8 9 11] [1 2 3 4 5 6 7 8 9 11]{8} 10{6} [1 2 3 4 5 6 7 8 9 11]{1} [1 2 3 4 5 6 7 8 9 11] [1 2 3 4 5 6 7 8 9 11]{8} 10{6} [1 2 3 4 5 6 7 8 9 11]{1} [1 2 3 4 5 6 7 8 9 11] [1 2 3 4 5 6 7 8 9 11]{7} 10{8} [1 2 3 4 5 6 7 8 9 11] [1 2 3 4 5 6 7 8 9 11]{8} 10{7} [1 2 3 4 5 6 7 8 9 11]*) | ([1 2 3 4 5 6 7 8 9 11]* 10{2} [1 2 3 4 5 6 7 8 9 11] [1 2 3 4 5 6 7 8 9 11]{11} 10{4} [1 2 3 4 5 6 7 8 9 11] [1 2 3 4 5 6 7 8 9 11]{11} 10{4} [1 2 3 4 5 6 7 8 9 11] [1 2 3 4 5 6 7 8 9 11]{10} 10{5} [1 2 3 4 5 6 7 8 9 11] [1 2 3 4 5 6 7 8 9 11]{10} 10{5} [1 2 3 4 5 6 7 8 9 11] [1 2 3 4 5 6 7 8 9 11]{10} 10{5} [1 2 3 4 5 6 7 8 9 11] [1 2 3 4 5 6 7 8 9 11]{9} 10{6} [1 2 3 4 5 6 7 8 9 11] [1 2 3 4 5 6 7 8 9 11]{13} 10{1} [1 2 3 4 5 6 7 8 9 11]*) | ([1 2 3 4 5 6 7 8 9 11]* 10{7} [1 2 3 4 5 6 7 8 9 11]{8} [1 2 3 4 5 6 7 8 9 11] 10{8} [1 2 3 4 5 6 7 8 9 11]{7} [1 2 3 4 5 6 7 8 9 11] [1 2 3 4 5 6 7 8 9 11]{1} 10{6} [1 2 3 4 5 6 7 8 9 11]{8} [1 2 3 4 5 6 7 8 9 11] [1 2 3 4 5 6 7 8 9 11]{1} 10{6} [1 2 3 4 5 6 7 8 9 11]{8} [1 2 3 4 5 6 7 8 9 11] [1 2 3 4 5 6 7 8 9 11]{3} 10{4} [1 2 3 4 5 6 7 8 9 11]{8} [1 2 3 4 5 6 7 8 9 11] [1 2 3 4 5 6 7 8 9 11]{6} 10{1} [1 2 3 4 5 6 7 8 9 11]*) | ([1 2 3 4 5 6 7 8 9 11]* 10{1} [1 2 3 4 5 6 7 8 9 11]{13} [1 2 3 4 5 6 7 8 9 11] 10{6} [1 2 3 4 5 6 7 8 9 11]{9} [1 2 3 4 5 6 7 8 9 11] 10{5} [1 2 3 4 5 6 7 8 9 11]{10} [1 2 3 4 5 6 7 8 9 11] 10{5} [1 2 3 4 5 6 7 8 9 11]{10} [1 2 3 4 5 6 7 8 9 11] 10{5} [1 2 3 4 5 6 7 8 9 11]{10} [1 2 3 4 5 6 7 8 9 11] 10{4} [1 2 3 4 5 6 7 8 9 11]{11} [1 2 3 4 5 6 7 8 9 11] 10{4} [1 2 3 4 5 6 7 8 9 11]{11} [1 2 3 4 5 6 7 8 9 11] 10{2} [1 2 3 4 5 6 7 8 9 11]*) )",
];
